*Heading
** Job name: ex-1-Uniaxialtension Model name: Model-1
** Generated by: Abaqus/CAE 2020
*Preprint, echo=NO, model=NO, history=NO, contact=NO
**
** PARTS
**
*Part, name=block
*Node
      1,           0.,           0.,           2.
      2,           0.,           2.,           2.
      3,           0.,           4.,           2.
      4,           0.,           6.,           2.
      5,           0.,           0.,   1.33333337
      6,           0.,           2.,   1.33333337
      7,           0.,           4.,   1.33333337
      8,           0.,           6.,   1.33333337
      9,           0.,           0.,  0.666666687
     10,           0.,           2.,  0.666666687
     11,           0.,           4.,  0.666666687
     12,           0.,           6.,  0.666666687
     13,           0.,           0.,           0.
     14,           0.,           2.,           0.
     15,           0.,           4.,           0.
     16,           0.,           6.,           0.
     17,          1.5,           0.,           2.
     18,          1.5,           2.,           2.
     19,          1.5,           4.,           2.
     20,          1.5,           6.,           2.
     21,          1.5,           0.,   1.33333337
     22,          1.5,           2.,   1.33333337
     23,          1.5,           4.,   1.33333337
     24,          1.5,           6.,   1.33333337
     25,          1.5,           0.,  0.666666687
     26,          1.5,           2.,  0.666666687
     27,          1.5,           4.,  0.666666687
     28,          1.5,           6.,  0.666666687
     29,          1.5,           0.,           0.
     30,          1.5,           2.,           0.
     31,          1.5,           4.,           0.
     32,          1.5,           6.,           0.
     33,           3.,           0.,           2.
     34,           3.,           2.,           2.
     35,           3.,           4.,           2.
     36,           3.,           6.,           2.
     37,           3.,           0.,   1.33333337
     38,           3.,           2.,   1.33333337
     39,           3.,           4.,   1.33333337
     40,           3.,           6.,   1.33333337
     41,           3.,           0.,  0.666666687
     42,           3.,           2.,  0.666666687
     43,           3.,           4.,  0.666666687
     44,           3.,           6.,  0.666666687
     45,           3.,           0.,           0.
     46,           3.,           2.,           0.
     47,           3.,           4.,           0.
     48,           3.,           6.,           0.
     49,          4.5,           0.,           2.
     50,          4.5,           2.,           2.
     51,          4.5,           4.,           2.
     52,          4.5,           6.,           2.
     53,          4.5,           0.,   1.33333337
     54,          4.5,           2.,   1.33333337
     55,          4.5,           4.,   1.33333337
     56,          4.5,           6.,   1.33333337
     57,          4.5,           0.,  0.666666687
     58,          4.5,           2.,  0.666666687
     59,          4.5,           4.,  0.666666687
     60,          4.5,           6.,  0.666666687
     61,          4.5,           0.,           0.
     62,          4.5,           2.,           0.
     63,          4.5,           4.,           0.
     64,          4.5,           6.,           0.
     65,           6.,           0.,           2.
     66,           6.,           2.,           2.
     67,           6.,           4.,           2.
     68,           6.,           6.,           2.
     69,           6.,           0.,   1.33333337
     70,           6.,           2.,   1.33333337
     71,           6.,           4.,   1.33333337
     72,           6.,           6.,   1.33333337
     73,           6.,           0.,  0.666666687
     74,           6.,           2.,  0.666666687
     75,           6.,           4.,  0.666666687
     76,           6.,           6.,  0.666666687
     77,           6.,           0.,           0.
     78,           6.,           2.,           0.
     79,           6.,           4.,           0.
     80,           6.,           6.,           0.
     81,          7.5,           0.,           2.
     82,          7.5,           2.,           2.
     83,          7.5,           4.,           2.
     84,          7.5,           6.,           2.
     85,          7.5,           0.,   1.33333337
     86,          7.5,           2.,   1.33333337
     87,          7.5,           4.,   1.33333337
     88,          7.5,           6.,   1.33333337
     89,          7.5,           0.,  0.666666687
     90,          7.5,           2.,  0.666666687
     91,          7.5,           4.,  0.666666687
     92,          7.5,           6.,  0.666666687
     93,          7.5,           0.,           0.
     94,          7.5,           2.,           0.
     95,          7.5,           4.,           0.
     96,          7.5,           6.,           0.
     97,           9.,           0.,           2.
     98,           9.,           2.,           2.
     99,           9.,           4.,           2.
    100,           9.,           6.,           2.
    101,           9.,           0.,   1.33333337
    102,           9.,           2.,   1.33333337
    103,           9.,           4.,   1.33333337
    104,           9.,           6.,   1.33333337
    105,           9.,           0.,  0.666666687
    106,           9.,           2.,  0.666666687
    107,           9.,           4.,  0.666666687
    108,           9.,           6.,  0.666666687
    109,           9.,           0.,           0.
    110,           9.,           2.,           0.
    111,           9.,           4.,           0.
    112,           9.,           6.,           0.
    113,         10.5,           0.,           2.
    114,         10.5,           2.,           2.
    115,         10.5,           4.,           2.
    116,         10.5,           6.,           2.
    117,         10.5,           0.,   1.33333337
    118,         10.5,           2.,   1.33333337
    119,         10.5,           4.,   1.33333337
    120,         10.5,           6.,   1.33333337
    121,         10.5,           0.,  0.666666687
    122,         10.5,           2.,  0.666666687
    123,         10.5,           4.,  0.666666687
    124,         10.5,           6.,  0.666666687
    125,         10.5,           0.,           0.
    126,         10.5,           2.,           0.
    127,         10.5,           4.,           0.
    128,         10.5,           6.,           0.
    129,          12.,           0.,           2.
    130,          12.,           2.,           2.
    131,          12.,           4.,           2.
    132,          12.,           6.,           2.
    133,          12.,           0.,   1.33333337
    134,          12.,           2.,   1.33333337
    135,          12.,           4.,   1.33333337
    136,          12.,           6.,   1.33333337
    137,          12.,           0.,  0.666666687
    138,          12.,           2.,  0.666666687
    139,          12.,           4.,  0.666666687
    140,          12.,           6.,  0.666666687
    141,          12.,           0.,           0.
    142,          12.,           2.,           0.
    143,          12.,           4.,           0.
    144,          12.,           6.,           0.
    145,         13.5,           0.,           2.
    146,         13.5,           2.,           2.
    147,         13.5,           4.,           2.
    148,         13.5,           6.,           2.
    149,         13.5,           0.,   1.33333337
    150,         13.5,           2.,   1.33333337
    151,         13.5,           4.,   1.33333337
    152,         13.5,           6.,   1.33333337
    153,         13.5,           0.,  0.666666687
    154,         13.5,           2.,  0.666666687
    155,         13.5,           4.,  0.666666687
    156,         13.5,           6.,  0.666666687
    157,         13.5,           0.,           0.
    158,         13.5,           2.,           0.
    159,         13.5,           4.,           0.
    160,         13.5,           6.,           0.
    161,          15.,           0.,           2.
    162,          15.,           2.,           2.
    163,          15.,           4.,           2.
    164,          15.,           6.,           2.
    165,          15.,           0.,   1.33333337
    166,          15.,           2.,   1.33333337
    167,          15.,           4.,   1.33333337
    168,          15.,           6.,   1.33333337
    169,          15.,           0.,  0.666666687
    170,          15.,           2.,  0.666666687
    171,          15.,           4.,  0.666666687
    172,          15.,           6.,  0.666666687
    173,          15.,           0.,           0.
    174,          15.,           2.,           0.
    175,          15.,           4.,           0.
    176,          15.,           6.,           0.
    177,         16.5,           0.,           2.
    178,         16.5,           2.,           2.
    179,         16.5,           4.,           2.
    180,         16.5,           6.,           2.
    181,         16.5,           0.,   1.33333337
    182,         16.5,           2.,   1.33333337
    183,         16.5,           4.,   1.33333337
    184,         16.5,           6.,   1.33333337
    185,         16.5,           0.,  0.666666687
    186,         16.5,           2.,  0.666666687
    187,         16.5,           4.,  0.666666687
    188,         16.5,           6.,  0.666666687
    189,         16.5,           0.,           0.
    190,         16.5,           2.,           0.
    191,         16.5,           4.,           0.
    192,         16.5,           6.,           0.
    193,          18.,           0.,           2.
    194,          18.,           2.,           2.
    195,          18.,           4.,           2.
    196,          18.,           6.,           2.
    197,          18.,           0.,   1.33333337
    198,          18.,           2.,   1.33333337
    199,          18.,           4.,   1.33333337
    200,          18.,           6.,   1.33333337
    201,          18.,           0.,  0.666666687
    202,          18.,           2.,  0.666666687
    203,          18.,           4.,  0.666666687
    204,          18.,           6.,  0.666666687
    205,          18.,           0.,           0.
    206,          18.,           2.,           0.
    207,          18.,           4.,           0.
    208,          18.,           6.,           0.
    209,         19.5,           0.,           2.
    210,         19.5,           2.,           2.
    211,         19.5,           4.,           2.
    212,         19.5,           6.,           2.
    213,         19.5,           0.,   1.33333337
    214,         19.5,           2.,   1.33333337
    215,         19.5,           4.,   1.33333337
    216,         19.5,           6.,   1.33333337
    217,         19.5,           0.,  0.666666687
    218,         19.5,           2.,  0.666666687
    219,         19.5,           4.,  0.666666687
    220,         19.5,           6.,  0.666666687
    221,         19.5,           0.,           0.
    222,         19.5,           2.,           0.
    223,         19.5,           4.,           0.
    224,         19.5,           6.,           0.
    225,          21.,           0.,           2.
    226,          21.,           2.,           2.
    227,          21.,           4.,           2.
    228,          21.,           6.,           2.
    229,          21.,           0.,   1.33333337
    230,          21.,           2.,   1.33333337
    231,          21.,           4.,   1.33333337
    232,          21.,           6.,   1.33333337
    233,          21.,           0.,  0.666666687
    234,          21.,           2.,  0.666666687
    235,          21.,           4.,  0.666666687
    236,          21.,           6.,  0.666666687
    237,          21.,           0.,           0.
    238,          21.,           2.,           0.
    239,          21.,           4.,           0.
    240,          21.,           6.,           0.
    241,         22.5,           0.,           2.
    242,         22.5,           2.,           2.
    243,         22.5,           4.,           2.
    244,         22.5,           6.,           2.
    245,         22.5,           0.,   1.33333337
    246,         22.5,           2.,   1.33333337
    247,         22.5,           4.,   1.33333337
    248,         22.5,           6.,   1.33333337
    249,         22.5,           0.,  0.666666687
    250,         22.5,           2.,  0.666666687
    251,         22.5,           4.,  0.666666687
    252,         22.5,           6.,  0.666666687
    253,         22.5,           0.,           0.
    254,         22.5,           2.,           0.
    255,         22.5,           4.,           0.
    256,         22.5,           6.,           0.
    257,          24.,           0.,           2.
    258,          24.,           2.,           2.
    259,          24.,           4.,           2.
    260,          24.,           6.,           2.
    261,          24.,           0.,   1.33333337
    262,          24.,           2.,   1.33333337
    263,          24.,           4.,   1.33333337
    264,          24.,           6.,   1.33333337
    265,          24.,           0.,  0.666666687
    266,          24.,           2.,  0.666666687
    267,          24.,           4.,  0.666666687
    268,          24.,           6.,  0.666666687
    269,          24.,           0.,           0.
    270,          24.,           2.,           0.
    271,          24.,           4.,           0.
    272,          24.,           6.,           0.
    273,         25.5,           0.,           2.
    274,         25.5,           2.,           2.
    275,         25.5,           4.,           2.
    276,         25.5,           6.,           2.
    277,         25.5,           0.,   1.33333337
    278,         25.5,           2.,   1.33333337
    279,         25.5,           4.,   1.33333337
    280,         25.5,           6.,   1.33333337
    281,         25.5,           0.,  0.666666687
    282,         25.5,           2.,  0.666666687
    283,         25.5,           4.,  0.666666687
    284,         25.5,           6.,  0.666666687
    285,         25.5,           0.,           0.
    286,         25.5,           2.,           0.
    287,         25.5,           4.,           0.
    288,         25.5,           6.,           0.
    289,          27.,           0.,           2.
    290,          27.,           2.,           2.
    291,          27.,           4.,           2.
    292,          27.,           6.,           2.
    293,          27.,           0.,   1.33333337
    294,          27.,           2.,   1.33333337
    295,          27.,           4.,   1.33333337
    296,          27.,           6.,   1.33333337
    297,          27.,           0.,  0.666666687
    298,          27.,           2.,  0.666666687
    299,          27.,           4.,  0.666666687
    300,          27.,           6.,  0.666666687
    301,          27.,           0.,           0.
    302,          27.,           2.,           0.
    303,          27.,           4.,           0.
    304,          27.,           6.,           0.
    305,         28.5,           0.,           2.
    306,         28.5,           2.,           2.
    307,         28.5,           4.,           2.
    308,         28.5,           6.,           2.
    309,         28.5,           0.,   1.33333337
    310,         28.5,           2.,   1.33333337
    311,         28.5,           4.,   1.33333337
    312,         28.5,           6.,   1.33333337
    313,         28.5,           0.,  0.666666687
    314,         28.5,           2.,  0.666666687
    315,         28.5,           4.,  0.666666687
    316,         28.5,           6.,  0.666666687
    317,         28.5,           0.,           0.
    318,         28.5,           2.,           0.
    319,         28.5,           4.,           0.
    320,         28.5,           6.,           0.
    321,          30.,           0.,           2.
    322,          30.,           2.,           2.
    323,          30.,           4.,           2.
    324,          30.,           6.,           2.
    325,          30.,           0.,   1.33333337
    326,          30.,           2.,   1.33333337
    327,          30.,           4.,   1.33333337
    328,          30.,           6.,   1.33333337
    329,          30.,           0.,  0.666666687
    330,          30.,           2.,  0.666666687
    331,          30.,           4.,  0.666666687
    332,          30.,           6.,  0.666666687
    333,          30.,           0.,           0.
    334,          30.,           2.,           0.
    335,          30.,           4.,           0.
    336,          30.,           6.,           0.
    337,         31.5,           0.,           2.
    338,         31.5,           2.,           2.
    339,         31.5,           4.,           2.
    340,         31.5,           6.,           2.
    341,         31.5,           0.,   1.33333337
    342,         31.5,           2.,   1.33333337
    343,         31.5,           4.,   1.33333337
    344,         31.5,           6.,   1.33333337
    345,         31.5,           0.,  0.666666687
    346,         31.5,           2.,  0.666666687
    347,         31.5,           4.,  0.666666687
    348,         31.5,           6.,  0.666666687
    349,         31.5,           0.,           0.
    350,         31.5,           2.,           0.
    351,         31.5,           4.,           0.
    352,         31.5,           6.,           0.
    353,          33.,           0.,           2.
    354,          33.,           2.,           2.
    355,          33.,           4.,           2.
    356,          33.,           6.,           2.
    357,          33.,           0.,   1.33333337
    358,          33.,           2.,   1.33333337
    359,          33.,           4.,   1.33333337
    360,          33.,           6.,   1.33333337
    361,          33.,           0.,  0.666666687
    362,          33.,           2.,  0.666666687
    363,          33.,           4.,  0.666666687
    364,          33.,           6.,  0.666666687
    365,          33.,           0.,           0.
    366,          33.,           2.,           0.
    367,          33.,           4.,           0.
    368,          33.,           6.,           0.
    369,          1.5,           0.,   1.66666675
    370,          1.5,           1.,   1.33333337
    371,          1.5,           2.,   1.66666675
    372,          1.5,           1.,           2.
    373,           0.,           1.,           2.
    374,           0.,           2.,   1.66666675
    375,           0.,           1.,   1.33333337
    376,           0.,           0.,   1.66666675
    377,         0.75,           2.,           2.
    378,         0.75,           0.,           2.
    379,         0.75,           2.,   1.33333337
    380,         0.75,           0.,   1.33333337
    381,          1.5,           3.,   1.33333337
    382,          1.5,           4.,   1.66666675
    383,          1.5,           3.,           2.
    384,           0.,           3.,           2.
    385,           0.,           4.,   1.66666675
    386,           0.,           3.,   1.33333337
    387,         0.75,           4.,           2.
    388,         0.75,           4.,   1.33333337
    389,          1.5,           5.,   1.33333337
    390,          1.5,           6.,   1.66666675
    391,          1.5,           5.,           2.
    392,           0.,           5.,           2.
    393,           0.,           6.,   1.66666675
    394,           0.,           5.,   1.33333337
    395,         0.75,           6.,           2.
    396,         0.75,           6.,   1.33333337
    397,          1.5,           0.,           1.
    398,          1.5,           1.,  0.666666687
    399,          1.5,           2.,           1.
    400,           0.,           2.,           1.
    401,           0.,           1.,  0.666666687
    402,           0.,           0.,           1.
    403,         0.75,           2.,  0.666666687
    404,         0.75,           0.,  0.666666687
    405,          1.5,           3.,  0.666666687
    406,          1.5,           4.,           1.
    407,           0.,           4.,           1.
    408,           0.,           3.,  0.666666687
    409,         0.75,           4.,  0.666666687
    410,          1.5,           5.,  0.666666687
    411,          1.5,           6.,           1.
    412,           0.,           6.,           1.
    413,           0.,           5.,  0.666666687
    414,         0.75,           6.,  0.666666687
    415,          1.5,           0.,  0.333333343
    416,          1.5,           1.,           0.
    417,          1.5,           2.,  0.333333343
    418,           0.,           2.,  0.333333343
    419,           0.,           1.,           0.
    420,           0.,           0.,  0.333333343
    421,         0.75,           2.,           0.
    422,         0.75,           0.,           0.
    423,          1.5,           3.,           0.
    424,          1.5,           4.,  0.333333343
    425,           0.,           4.,  0.333333343
    426,           0.,           3.,           0.
    427,         0.75,           4.,           0.
    428,          1.5,           5.,           0.
    429,          1.5,           6.,  0.333333343
    430,           0.,           6.,  0.333333343
    431,           0.,           5.,           0.
    432,         0.75,           6.,           0.
    433,           3.,           0.,   1.66666675
    434,           3.,           1.,   1.33333337
    435,           3.,           2.,   1.66666675
    436,           3.,           1.,           2.
    437,         2.25,           2.,           2.
    438,         2.25,           0.,           2.
    439,         2.25,           2.,   1.33333337
    440,         2.25,           0.,   1.33333337
    441,           3.,           3.,   1.33333337
    442,           3.,           4.,   1.66666675
    443,           3.,           3.,           2.
    444,         2.25,           4.,           2.
    445,         2.25,           4.,   1.33333337
    446,           3.,           5.,   1.33333337
    447,           3.,           6.,   1.66666675
    448,           3.,           5.,           2.
    449,         2.25,           6.,           2.
    450,         2.25,           6.,   1.33333337
    451,           3.,           0.,           1.
    452,           3.,           1.,  0.666666687
    453,           3.,           2.,           1.
    454,         2.25,           2.,  0.666666687
    455,         2.25,           0.,  0.666666687
    456,           3.,           3.,  0.666666687
    457,           3.,           4.,           1.
    458,         2.25,           4.,  0.666666687
    459,           3.,           5.,  0.666666687
    460,           3.,           6.,           1.
    461,         2.25,           6.,  0.666666687
    462,           3.,           0.,  0.333333343
    463,           3.,           1.,           0.
    464,           3.,           2.,  0.333333343
    465,         2.25,           2.,           0.
    466,         2.25,           0.,           0.
    467,           3.,           3.,           0.
    468,           3.,           4.,  0.333333343
    469,         2.25,           4.,           0.
    470,           3.,           5.,           0.
    471,           3.,           6.,  0.333333343
    472,         2.25,           6.,           0.
    473,          4.5,           0.,   1.66666675
    474,          4.5,           1.,   1.33333337
    475,          4.5,           2.,   1.66666675
    476,          4.5,           1.,           2.
    477,         3.75,           2.,           2.
    478,         3.75,           0.,           2.
    479,         3.75,           2.,   1.33333337
    480,         3.75,           0.,   1.33333337
    481,          4.5,           3.,   1.33333337
    482,          4.5,           4.,   1.66666675
    483,          4.5,           3.,           2.
    484,         3.75,           4.,           2.
    485,         3.75,           4.,   1.33333337
    486,          4.5,           5.,   1.33333337
    487,          4.5,           6.,   1.66666675
    488,          4.5,           5.,           2.
    489,         3.75,           6.,           2.
    490,         3.75,           6.,   1.33333337
    491,          4.5,           0.,           1.
    492,          4.5,           1.,  0.666666687
    493,          4.5,           2.,           1.
    494,         3.75,           2.,  0.666666687
    495,         3.75,           0.,  0.666666687
    496,          4.5,           3.,  0.666666687
    497,          4.5,           4.,           1.
    498,         3.75,           4.,  0.666666687
    499,          4.5,           5.,  0.666666687
    500,          4.5,           6.,           1.
    501,         3.75,           6.,  0.666666687
    502,          4.5,           0.,  0.333333343
    503,          4.5,           1.,           0.
    504,          4.5,           2.,  0.333333343
    505,         3.75,           2.,           0.
    506,         3.75,           0.,           0.
    507,          4.5,           3.,           0.
    508,          4.5,           4.,  0.333333343
    509,         3.75,           4.,           0.
    510,          4.5,           5.,           0.
    511,          4.5,           6.,  0.333333343
    512,         3.75,           6.,           0.
    513,           6.,           0.,   1.66666675
    514,           6.,           1.,   1.33333337
    515,           6.,           2.,   1.66666675
    516,           6.,           1.,           2.
    517,         5.25,           2.,           2.
    518,         5.25,           0.,           2.
    519,         5.25,           2.,   1.33333337
    520,         5.25,           0.,   1.33333337
    521,           6.,           3.,   1.33333337
    522,           6.,           4.,   1.66666675
    523,           6.,           3.,           2.
    524,         5.25,           4.,           2.
    525,         5.25,           4.,   1.33333337
    526,           6.,           5.,   1.33333337
    527,           6.,           6.,   1.66666675
    528,           6.,           5.,           2.
    529,         5.25,           6.,           2.
    530,         5.25,           6.,   1.33333337
    531,           6.,           0.,           1.
    532,           6.,           1.,  0.666666687
    533,           6.,           2.,           1.
    534,         5.25,           2.,  0.666666687
    535,         5.25,           0.,  0.666666687
    536,           6.,           3.,  0.666666687
    537,           6.,           4.,           1.
    538,         5.25,           4.,  0.666666687
    539,           6.,           5.,  0.666666687
    540,           6.,           6.,           1.
    541,         5.25,           6.,  0.666666687
    542,           6.,           0.,  0.333333343
    543,           6.,           1.,           0.
    544,           6.,           2.,  0.333333343
    545,         5.25,           2.,           0.
    546,         5.25,           0.,           0.
    547,           6.,           3.,           0.
    548,           6.,           4.,  0.333333343
    549,         5.25,           4.,           0.
    550,           6.,           5.,           0.
    551,           6.,           6.,  0.333333343
    552,         5.25,           6.,           0.
    553,          7.5,           0.,   1.66666675
    554,          7.5,           1.,   1.33333337
    555,          7.5,           2.,   1.66666675
    556,          7.5,           1.,           2.
    557,         6.75,           2.,           2.
    558,         6.75,           0.,           2.
    559,         6.75,           2.,   1.33333337
    560,         6.75,           0.,   1.33333337
    561,          7.5,           3.,   1.33333337
    562,          7.5,           4.,   1.66666675
    563,          7.5,           3.,           2.
    564,         6.75,           4.,           2.
    565,         6.75,           4.,   1.33333337
    566,          7.5,           5.,   1.33333337
    567,          7.5,           6.,   1.66666675
    568,          7.5,           5.,           2.
    569,         6.75,           6.,           2.
    570,         6.75,           6.,   1.33333337
    571,          7.5,           0.,           1.
    572,          7.5,           1.,  0.666666687
    573,          7.5,           2.,           1.
    574,         6.75,           2.,  0.666666687
    575,         6.75,           0.,  0.666666687
    576,          7.5,           3.,  0.666666687
    577,          7.5,           4.,           1.
    578,         6.75,           4.,  0.666666687
    579,          7.5,           5.,  0.666666687
    580,          7.5,           6.,           1.
    581,         6.75,           6.,  0.666666687
    582,          7.5,           0.,  0.333333343
    583,          7.5,           1.,           0.
    584,          7.5,           2.,  0.333333343
    585,         6.75,           2.,           0.
    586,         6.75,           0.,           0.
    587,          7.5,           3.,           0.
    588,          7.5,           4.,  0.333333343
    589,         6.75,           4.,           0.
    590,          7.5,           5.,           0.
    591,          7.5,           6.,  0.333333343
    592,         6.75,           6.,           0.
    593,           9.,           0.,   1.66666675
    594,           9.,           1.,   1.33333337
    595,           9.,           2.,   1.66666675
    596,           9.,           1.,           2.
    597,         8.25,           2.,           2.
    598,         8.25,           0.,           2.
    599,         8.25,           2.,   1.33333337
    600,         8.25,           0.,   1.33333337
    601,           9.,           3.,   1.33333337
    602,           9.,           4.,   1.66666675
    603,           9.,           3.,           2.
    604,         8.25,           4.,           2.
    605,         8.25,           4.,   1.33333337
    606,           9.,           5.,   1.33333337
    607,           9.,           6.,   1.66666675
    608,           9.,           5.,           2.
    609,         8.25,           6.,           2.
    610,         8.25,           6.,   1.33333337
    611,           9.,           0.,           1.
    612,           9.,           1.,  0.666666687
    613,           9.,           2.,           1.
    614,         8.25,           2.,  0.666666687
    615,         8.25,           0.,  0.666666687
    616,           9.,           3.,  0.666666687
    617,           9.,           4.,           1.
    618,         8.25,           4.,  0.666666687
    619,           9.,           5.,  0.666666687
    620,           9.,           6.,           1.
    621,         8.25,           6.,  0.666666687
    622,           9.,           0.,  0.333333343
    623,           9.,           1.,           0.
    624,           9.,           2.,  0.333333343
    625,         8.25,           2.,           0.
    626,         8.25,           0.,           0.
    627,           9.,           3.,           0.
    628,           9.,           4.,  0.333333343
    629,         8.25,           4.,           0.
    630,           9.,           5.,           0.
    631,           9.,           6.,  0.333333343
    632,         8.25,           6.,           0.
    633,         10.5,           0.,   1.66666675
    634,         10.5,           1.,   1.33333337
    635,         10.5,           2.,   1.66666675
    636,         10.5,           1.,           2.
    637,         9.75,           2.,           2.
    638,         9.75,           0.,           2.
    639,         9.75,           2.,   1.33333337
    640,         9.75,           0.,   1.33333337
    641,         10.5,           3.,   1.33333337
    642,         10.5,           4.,   1.66666675
    643,         10.5,           3.,           2.
    644,         9.75,           4.,           2.
    645,         9.75,           4.,   1.33333337
    646,         10.5,           5.,   1.33333337
    647,         10.5,           6.,   1.66666675
    648,         10.5,           5.,           2.
    649,         9.75,           6.,           2.
    650,         9.75,           6.,   1.33333337
    651,         10.5,           0.,           1.
    652,         10.5,           1.,  0.666666687
    653,         10.5,           2.,           1.
    654,         9.75,           2.,  0.666666687
    655,         9.75,           0.,  0.666666687
    656,         10.5,           3.,  0.666666687
    657,         10.5,           4.,           1.
    658,         9.75,           4.,  0.666666687
    659,         10.5,           5.,  0.666666687
    660,         10.5,           6.,           1.
    661,         9.75,           6.,  0.666666687
    662,         10.5,           0.,  0.333333343
    663,         10.5,           1.,           0.
    664,         10.5,           2.,  0.333333343
    665,         9.75,           2.,           0.
    666,         9.75,           0.,           0.
    667,         10.5,           3.,           0.
    668,         10.5,           4.,  0.333333343
    669,         9.75,           4.,           0.
    670,         10.5,           5.,           0.
    671,         10.5,           6.,  0.333333343
    672,         9.75,           6.,           0.
    673,          12.,           0.,   1.66666675
    674,          12.,           1.,   1.33333337
    675,          12.,           2.,   1.66666675
    676,          12.,           1.,           2.
    677,        11.25,           2.,           2.
    678,        11.25,           0.,           2.
    679,        11.25,           2.,   1.33333337
    680,        11.25,           0.,   1.33333337
    681,          12.,           3.,   1.33333337
    682,          12.,           4.,   1.66666675
    683,          12.,           3.,           2.
    684,        11.25,           4.,           2.
    685,        11.25,           4.,   1.33333337
    686,          12.,           5.,   1.33333337
    687,          12.,           6.,   1.66666675
    688,          12.,           5.,           2.
    689,        11.25,           6.,           2.
    690,        11.25,           6.,   1.33333337
    691,          12.,           0.,           1.
    692,          12.,           1.,  0.666666687
    693,          12.,           2.,           1.
    694,        11.25,           2.,  0.666666687
    695,        11.25,           0.,  0.666666687
    696,          12.,           3.,  0.666666687
    697,          12.,           4.,           1.
    698,        11.25,           4.,  0.666666687
    699,          12.,           5.,  0.666666687
    700,          12.,           6.,           1.
    701,        11.25,           6.,  0.666666687
    702,          12.,           0.,  0.333333343
    703,          12.,           1.,           0.
    704,          12.,           2.,  0.333333343
    705,        11.25,           2.,           0.
    706,        11.25,           0.,           0.
    707,          12.,           3.,           0.
    708,          12.,           4.,  0.333333343
    709,        11.25,           4.,           0.
    710,          12.,           5.,           0.
    711,          12.,           6.,  0.333333343
    712,        11.25,           6.,           0.
    713,         13.5,           0.,   1.66666675
    714,         13.5,           1.,   1.33333337
    715,         13.5,           2.,   1.66666675
    716,         13.5,           1.,           2.
    717,        12.75,           2.,           2.
    718,        12.75,           0.,           2.
    719,        12.75,           2.,   1.33333337
    720,        12.75,           0.,   1.33333337
    721,         13.5,           3.,   1.33333337
    722,         13.5,           4.,   1.66666675
    723,         13.5,           3.,           2.
    724,        12.75,           4.,           2.
    725,        12.75,           4.,   1.33333337
    726,         13.5,           5.,   1.33333337
    727,         13.5,           6.,   1.66666675
    728,         13.5,           5.,           2.
    729,        12.75,           6.,           2.
    730,        12.75,           6.,   1.33333337
    731,         13.5,           0.,           1.
    732,         13.5,           1.,  0.666666687
    733,         13.5,           2.,           1.
    734,        12.75,           2.,  0.666666687
    735,        12.75,           0.,  0.666666687
    736,         13.5,           3.,  0.666666687
    737,         13.5,           4.,           1.
    738,        12.75,           4.,  0.666666687
    739,         13.5,           5.,  0.666666687
    740,         13.5,           6.,           1.
    741,        12.75,           6.,  0.666666687
    742,         13.5,           0.,  0.333333343
    743,         13.5,           1.,           0.
    744,         13.5,           2.,  0.333333343
    745,        12.75,           2.,           0.
    746,        12.75,           0.,           0.
    747,         13.5,           3.,           0.
    748,         13.5,           4.,  0.333333343
    749,        12.75,           4.,           0.
    750,         13.5,           5.,           0.
    751,         13.5,           6.,  0.333333343
    752,        12.75,           6.,           0.
    753,          15.,           0.,   1.66666675
    754,          15.,           1.,   1.33333337
    755,          15.,           2.,   1.66666675
    756,          15.,           1.,           2.
    757,        14.25,           2.,           2.
    758,        14.25,           0.,           2.
    759,        14.25,           2.,   1.33333337
    760,        14.25,           0.,   1.33333337
    761,          15.,           3.,   1.33333337
    762,          15.,           4.,   1.66666675
    763,          15.,           3.,           2.
    764,        14.25,           4.,           2.
    765,        14.25,           4.,   1.33333337
    766,          15.,           5.,   1.33333337
    767,          15.,           6.,   1.66666675
    768,          15.,           5.,           2.
    769,        14.25,           6.,           2.
    770,        14.25,           6.,   1.33333337
    771,          15.,           0.,           1.
    772,          15.,           1.,  0.666666687
    773,          15.,           2.,           1.
    774,        14.25,           2.,  0.666666687
    775,        14.25,           0.,  0.666666687
    776,          15.,           3.,  0.666666687
    777,          15.,           4.,           1.
    778,        14.25,           4.,  0.666666687
    779,          15.,           5.,  0.666666687
    780,          15.,           6.,           1.
    781,        14.25,           6.,  0.666666687
    782,          15.,           0.,  0.333333343
    783,          15.,           1.,           0.
    784,          15.,           2.,  0.333333343
    785,        14.25,           2.,           0.
    786,        14.25,           0.,           0.
    787,          15.,           3.,           0.
    788,          15.,           4.,  0.333333343
    789,        14.25,           4.,           0.
    790,          15.,           5.,           0.
    791,          15.,           6.,  0.333333343
    792,        14.25,           6.,           0.
    793,         16.5,           0.,   1.66666675
    794,         16.5,           1.,   1.33333337
    795,         16.5,           2.,   1.66666675
    796,         16.5,           1.,           2.
    797,        15.75,           2.,           2.
    798,        15.75,           0.,           2.
    799,        15.75,           2.,   1.33333337
    800,        15.75,           0.,   1.33333337
    801,         16.5,           3.,   1.33333337
    802,         16.5,           4.,   1.66666675
    803,         16.5,           3.,           2.
    804,        15.75,           4.,           2.
    805,        15.75,           4.,   1.33333337
    806,         16.5,           5.,   1.33333337
    807,         16.5,           6.,   1.66666675
    808,         16.5,           5.,           2.
    809,        15.75,           6.,           2.
    810,        15.75,           6.,   1.33333337
    811,         16.5,           0.,           1.
    812,         16.5,           1.,  0.666666687
    813,         16.5,           2.,           1.
    814,        15.75,           2.,  0.666666687
    815,        15.75,           0.,  0.666666687
    816,         16.5,           3.,  0.666666687
    817,         16.5,           4.,           1.
    818,        15.75,           4.,  0.666666687
    819,         16.5,           5.,  0.666666687
    820,         16.5,           6.,           1.
    821,        15.75,           6.,  0.666666687
    822,         16.5,           0.,  0.333333343
    823,         16.5,           1.,           0.
    824,         16.5,           2.,  0.333333343
    825,        15.75,           2.,           0.
    826,        15.75,           0.,           0.
    827,         16.5,           3.,           0.
    828,         16.5,           4.,  0.333333343
    829,        15.75,           4.,           0.
    830,         16.5,           5.,           0.
    831,         16.5,           6.,  0.333333343
    832,        15.75,           6.,           0.
    833,          18.,           0.,   1.66666675
    834,          18.,           1.,   1.33333337
    835,          18.,           2.,   1.66666675
    836,          18.,           1.,           2.
    837,        17.25,           2.,           2.
    838,        17.25,           0.,           2.
    839,        17.25,           2.,   1.33333337
    840,        17.25,           0.,   1.33333337
    841,          18.,           3.,   1.33333337
    842,          18.,           4.,   1.66666675
    843,          18.,           3.,           2.
    844,        17.25,           4.,           2.
    845,        17.25,           4.,   1.33333337
    846,          18.,           5.,   1.33333337
    847,          18.,           6.,   1.66666675
    848,          18.,           5.,           2.
    849,        17.25,           6.,           2.
    850,        17.25,           6.,   1.33333337
    851,          18.,           0.,           1.
    852,          18.,           1.,  0.666666687
    853,          18.,           2.,           1.
    854,        17.25,           2.,  0.666666687
    855,        17.25,           0.,  0.666666687
    856,          18.,           3.,  0.666666687
    857,          18.,           4.,           1.
    858,        17.25,           4.,  0.666666687
    859,          18.,           5.,  0.666666687
    860,          18.,           6.,           1.
    861,        17.25,           6.,  0.666666687
    862,          18.,           0.,  0.333333343
    863,          18.,           1.,           0.
    864,          18.,           2.,  0.333333343
    865,        17.25,           2.,           0.
    866,        17.25,           0.,           0.
    867,          18.,           3.,           0.
    868,          18.,           4.,  0.333333343
    869,        17.25,           4.,           0.
    870,          18.,           5.,           0.
    871,          18.,           6.,  0.333333343
    872,        17.25,           6.,           0.
    873,         19.5,           0.,   1.66666675
    874,         19.5,           1.,   1.33333337
    875,         19.5,           2.,   1.66666675
    876,         19.5,           1.,           2.
    877,        18.75,           2.,           2.
    878,        18.75,           0.,           2.
    879,        18.75,           2.,   1.33333337
    880,        18.75,           0.,   1.33333337
    881,         19.5,           3.,   1.33333337
    882,         19.5,           4.,   1.66666675
    883,         19.5,           3.,           2.
    884,        18.75,           4.,           2.
    885,        18.75,           4.,   1.33333337
    886,         19.5,           5.,   1.33333337
    887,         19.5,           6.,   1.66666675
    888,         19.5,           5.,           2.
    889,        18.75,           6.,           2.
    890,        18.75,           6.,   1.33333337
    891,         19.5,           0.,           1.
    892,         19.5,           1.,  0.666666687
    893,         19.5,           2.,           1.
    894,        18.75,           2.,  0.666666687
    895,        18.75,           0.,  0.666666687
    896,         19.5,           3.,  0.666666687
    897,         19.5,           4.,           1.
    898,        18.75,           4.,  0.666666687
    899,         19.5,           5.,  0.666666687
    900,         19.5,           6.,           1.
    901,        18.75,           6.,  0.666666687
    902,         19.5,           0.,  0.333333343
    903,         19.5,           1.,           0.
    904,         19.5,           2.,  0.333333343
    905,        18.75,           2.,           0.
    906,        18.75,           0.,           0.
    907,         19.5,           3.,           0.
    908,         19.5,           4.,  0.333333343
    909,        18.75,           4.,           0.
    910,         19.5,           5.,           0.
    911,         19.5,           6.,  0.333333343
    912,        18.75,           6.,           0.
    913,          21.,           0.,   1.66666675
    914,          21.,           1.,   1.33333337
    915,          21.,           2.,   1.66666675
    916,          21.,           1.,           2.
    917,        20.25,           2.,           2.
    918,        20.25,           0.,           2.
    919,        20.25,           2.,   1.33333337
    920,        20.25,           0.,   1.33333337
    921,          21.,           3.,   1.33333337
    922,          21.,           4.,   1.66666675
    923,          21.,           3.,           2.
    924,        20.25,           4.,           2.
    925,        20.25,           4.,   1.33333337
    926,          21.,           5.,   1.33333337
    927,          21.,           6.,   1.66666675
    928,          21.,           5.,           2.
    929,        20.25,           6.,           2.
    930,        20.25,           6.,   1.33333337
    931,          21.,           0.,           1.
    932,          21.,           1.,  0.666666687
    933,          21.,           2.,           1.
    934,        20.25,           2.,  0.666666687
    935,        20.25,           0.,  0.666666687
    936,          21.,           3.,  0.666666687
    937,          21.,           4.,           1.
    938,        20.25,           4.,  0.666666687
    939,          21.,           5.,  0.666666687
    940,          21.,           6.,           1.
    941,        20.25,           6.,  0.666666687
    942,          21.,           0.,  0.333333343
    943,          21.,           1.,           0.
    944,          21.,           2.,  0.333333343
    945,        20.25,           2.,           0.
    946,        20.25,           0.,           0.
    947,          21.,           3.,           0.
    948,          21.,           4.,  0.333333343
    949,        20.25,           4.,           0.
    950,          21.,           5.,           0.
    951,          21.,           6.,  0.333333343
    952,        20.25,           6.,           0.
    953,         22.5,           0.,   1.66666675
    954,         22.5,           1.,   1.33333337
    955,         22.5,           2.,   1.66666675
    956,         22.5,           1.,           2.
    957,        21.75,           2.,           2.
    958,        21.75,           0.,           2.
    959,        21.75,           2.,   1.33333337
    960,        21.75,           0.,   1.33333337
    961,         22.5,           3.,   1.33333337
    962,         22.5,           4.,   1.66666675
    963,         22.5,           3.,           2.
    964,        21.75,           4.,           2.
    965,        21.75,           4.,   1.33333337
    966,         22.5,           5.,   1.33333337
    967,         22.5,           6.,   1.66666675
    968,         22.5,           5.,           2.
    969,        21.75,           6.,           2.
    970,        21.75,           6.,   1.33333337
    971,         22.5,           0.,           1.
    972,         22.5,           1.,  0.666666687
    973,         22.5,           2.,           1.
    974,        21.75,           2.,  0.666666687
    975,        21.75,           0.,  0.666666687
    976,         22.5,           3.,  0.666666687
    977,         22.5,           4.,           1.
    978,        21.75,           4.,  0.666666687
    979,         22.5,           5.,  0.666666687
    980,         22.5,           6.,           1.
    981,        21.75,           6.,  0.666666687
    982,         22.5,           0.,  0.333333343
    983,         22.5,           1.,           0.
    984,         22.5,           2.,  0.333333343
    985,        21.75,           2.,           0.
    986,        21.75,           0.,           0.
    987,         22.5,           3.,           0.
    988,         22.5,           4.,  0.333333343
    989,        21.75,           4.,           0.
    990,         22.5,           5.,           0.
    991,         22.5,           6.,  0.333333343
    992,        21.75,           6.,           0.
    993,          24.,           0.,   1.66666675
    994,          24.,           1.,   1.33333337
    995,          24.,           2.,   1.66666675
    996,          24.,           1.,           2.
    997,        23.25,           2.,           2.
    998,        23.25,           0.,           2.
    999,        23.25,           2.,   1.33333337
   1000,        23.25,           0.,   1.33333337
   1001,          24.,           3.,   1.33333337
   1002,          24.,           4.,   1.66666675
   1003,          24.,           3.,           2.
   1004,        23.25,           4.,           2.
   1005,        23.25,           4.,   1.33333337
   1006,          24.,           5.,   1.33333337
   1007,          24.,           6.,   1.66666675
   1008,          24.,           5.,           2.
   1009,        23.25,           6.,           2.
   1010,        23.25,           6.,   1.33333337
   1011,          24.,           0.,           1.
   1012,          24.,           1.,  0.666666687
   1013,          24.,           2.,           1.
   1014,        23.25,           2.,  0.666666687
   1015,        23.25,           0.,  0.666666687
   1016,          24.,           3.,  0.666666687
   1017,          24.,           4.,           1.
   1018,        23.25,           4.,  0.666666687
   1019,          24.,           5.,  0.666666687
   1020,          24.,           6.,           1.
   1021,        23.25,           6.,  0.666666687
   1022,          24.,           0.,  0.333333343
   1023,          24.,           1.,           0.
   1024,          24.,           2.,  0.333333343
   1025,        23.25,           2.,           0.
   1026,        23.25,           0.,           0.
   1027,          24.,           3.,           0.
   1028,          24.,           4.,  0.333333343
   1029,        23.25,           4.,           0.
   1030,          24.,           5.,           0.
   1031,          24.,           6.,  0.333333343
   1032,        23.25,           6.,           0.
   1033,         25.5,           0.,   1.66666675
   1034,         25.5,           1.,   1.33333337
   1035,         25.5,           2.,   1.66666675
   1036,         25.5,           1.,           2.
   1037,        24.75,           2.,           2.
   1038,        24.75,           0.,           2.
   1039,        24.75,           2.,   1.33333337
   1040,        24.75,           0.,   1.33333337
   1041,         25.5,           3.,   1.33333337
   1042,         25.5,           4.,   1.66666675
   1043,         25.5,           3.,           2.
   1044,        24.75,           4.,           2.
   1045,        24.75,           4.,   1.33333337
   1046,         25.5,           5.,   1.33333337
   1047,         25.5,           6.,   1.66666675
   1048,         25.5,           5.,           2.
   1049,        24.75,           6.,           2.
   1050,        24.75,           6.,   1.33333337
   1051,         25.5,           0.,           1.
   1052,         25.5,           1.,  0.666666687
   1053,         25.5,           2.,           1.
   1054,        24.75,           2.,  0.666666687
   1055,        24.75,           0.,  0.666666687
   1056,         25.5,           3.,  0.666666687
   1057,         25.5,           4.,           1.
   1058,        24.75,           4.,  0.666666687
   1059,         25.5,           5.,  0.666666687
   1060,         25.5,           6.,           1.
   1061,        24.75,           6.,  0.666666687
   1062,         25.5,           0.,  0.333333343
   1063,         25.5,           1.,           0.
   1064,         25.5,           2.,  0.333333343
   1065,        24.75,           2.,           0.
   1066,        24.75,           0.,           0.
   1067,         25.5,           3.,           0.
   1068,         25.5,           4.,  0.333333343
   1069,        24.75,           4.,           0.
   1070,         25.5,           5.,           0.
   1071,         25.5,           6.,  0.333333343
   1072,        24.75,           6.,           0.
   1073,          27.,           0.,   1.66666675
   1074,          27.,           1.,   1.33333337
   1075,          27.,           2.,   1.66666675
   1076,          27.,           1.,           2.
   1077,        26.25,           2.,           2.
   1078,        26.25,           0.,           2.
   1079,        26.25,           2.,   1.33333337
   1080,        26.25,           0.,   1.33333337
   1081,          27.,           3.,   1.33333337
   1082,          27.,           4.,   1.66666675
   1083,          27.,           3.,           2.
   1084,        26.25,           4.,           2.
   1085,        26.25,           4.,   1.33333337
   1086,          27.,           5.,   1.33333337
   1087,          27.,           6.,   1.66666675
   1088,          27.,           5.,           2.
   1089,        26.25,           6.,           2.
   1090,        26.25,           6.,   1.33333337
   1091,          27.,           0.,           1.
   1092,          27.,           1.,  0.666666687
   1093,          27.,           2.,           1.
   1094,        26.25,           2.,  0.666666687
   1095,        26.25,           0.,  0.666666687
   1096,          27.,           3.,  0.666666687
   1097,          27.,           4.,           1.
   1098,        26.25,           4.,  0.666666687
   1099,          27.,           5.,  0.666666687
   1100,          27.,           6.,           1.
   1101,        26.25,           6.,  0.666666687
   1102,          27.,           0.,  0.333333343
   1103,          27.,           1.,           0.
   1104,          27.,           2.,  0.333333343
   1105,        26.25,           2.,           0.
   1106,        26.25,           0.,           0.
   1107,          27.,           3.,           0.
   1108,          27.,           4.,  0.333333343
   1109,        26.25,           4.,           0.
   1110,          27.,           5.,           0.
   1111,          27.,           6.,  0.333333343
   1112,        26.25,           6.,           0.
   1113,         28.5,           0.,   1.66666675
   1114,         28.5,           1.,   1.33333337
   1115,         28.5,           2.,   1.66666675
   1116,         28.5,           1.,           2.
   1117,        27.75,           2.,           2.
   1118,        27.75,           0.,           2.
   1119,        27.75,           2.,   1.33333337
   1120,        27.75,           0.,   1.33333337
   1121,         28.5,           3.,   1.33333337
   1122,         28.5,           4.,   1.66666675
   1123,         28.5,           3.,           2.
   1124,        27.75,           4.,           2.
   1125,        27.75,           4.,   1.33333337
   1126,         28.5,           5.,   1.33333337
   1127,         28.5,           6.,   1.66666675
   1128,         28.5,           5.,           2.
   1129,        27.75,           6.,           2.
   1130,        27.75,           6.,   1.33333337
   1131,         28.5,           0.,           1.
   1132,         28.5,           1.,  0.666666687
   1133,         28.5,           2.,           1.
   1134,        27.75,           2.,  0.666666687
   1135,        27.75,           0.,  0.666666687
   1136,         28.5,           3.,  0.666666687
   1137,         28.5,           4.,           1.
   1138,        27.75,           4.,  0.666666687
   1139,         28.5,           5.,  0.666666687
   1140,         28.5,           6.,           1.
   1141,        27.75,           6.,  0.666666687
   1142,         28.5,           0.,  0.333333343
   1143,         28.5,           1.,           0.
   1144,         28.5,           2.,  0.333333343
   1145,        27.75,           2.,           0.
   1146,        27.75,           0.,           0.
   1147,         28.5,           3.,           0.
   1148,         28.5,           4.,  0.333333343
   1149,        27.75,           4.,           0.
   1150,         28.5,           5.,           0.
   1151,         28.5,           6.,  0.333333343
   1152,        27.75,           6.,           0.
   1153,          30.,           0.,   1.66666675
   1154,          30.,           1.,   1.33333337
   1155,          30.,           2.,   1.66666675
   1156,          30.,           1.,           2.
   1157,        29.25,           2.,           2.
   1158,        29.25,           0.,           2.
   1159,        29.25,           2.,   1.33333337
   1160,        29.25,           0.,   1.33333337
   1161,          30.,           3.,   1.33333337
   1162,          30.,           4.,   1.66666675
   1163,          30.,           3.,           2.
   1164,        29.25,           4.,           2.
   1165,        29.25,           4.,   1.33333337
   1166,          30.,           5.,   1.33333337
   1167,          30.,           6.,   1.66666675
   1168,          30.,           5.,           2.
   1169,        29.25,           6.,           2.
   1170,        29.25,           6.,   1.33333337
   1171,          30.,           0.,           1.
   1172,          30.,           1.,  0.666666687
   1173,          30.,           2.,           1.
   1174,        29.25,           2.,  0.666666687
   1175,        29.25,           0.,  0.666666687
   1176,          30.,           3.,  0.666666687
   1177,          30.,           4.,           1.
   1178,        29.25,           4.,  0.666666687
   1179,          30.,           5.,  0.666666687
   1180,          30.,           6.,           1.
   1181,        29.25,           6.,  0.666666687
   1182,          30.,           0.,  0.333333343
   1183,          30.,           1.,           0.
   1184,          30.,           2.,  0.333333343
   1185,        29.25,           2.,           0.
   1186,        29.25,           0.,           0.
   1187,          30.,           3.,           0.
   1188,          30.,           4.,  0.333333343
   1189,        29.25,           4.,           0.
   1190,          30.,           5.,           0.
   1191,          30.,           6.,  0.333333343
   1192,        29.25,           6.,           0.
   1193,         31.5,           0.,   1.66666675
   1194,         31.5,           1.,   1.33333337
   1195,         31.5,           2.,   1.66666675
   1196,         31.5,           1.,           2.
   1197,        30.75,           2.,           2.
   1198,        30.75,           0.,           2.
   1199,        30.75,           2.,   1.33333337
   1200,        30.75,           0.,   1.33333337
   1201,         31.5,           3.,   1.33333337
   1202,         31.5,           4.,   1.66666675
   1203,         31.5,           3.,           2.
   1204,        30.75,           4.,           2.
   1205,        30.75,           4.,   1.33333337
   1206,         31.5,           5.,   1.33333337
   1207,         31.5,           6.,   1.66666675
   1208,         31.5,           5.,           2.
   1209,        30.75,           6.,           2.
   1210,        30.75,           6.,   1.33333337
   1211,         31.5,           0.,           1.
   1212,         31.5,           1.,  0.666666687
   1213,         31.5,           2.,           1.
   1214,        30.75,           2.,  0.666666687
   1215,        30.75,           0.,  0.666666687
   1216,         31.5,           3.,  0.666666687
   1217,         31.5,           4.,           1.
   1218,        30.75,           4.,  0.666666687
   1219,         31.5,           5.,  0.666666687
   1220,         31.5,           6.,           1.
   1221,        30.75,           6.,  0.666666687
   1222,         31.5,           0.,  0.333333343
   1223,         31.5,           1.,           0.
   1224,         31.5,           2.,  0.333333343
   1225,        30.75,           2.,           0.
   1226,        30.75,           0.,           0.
   1227,         31.5,           3.,           0.
   1228,         31.5,           4.,  0.333333343
   1229,        30.75,           4.,           0.
   1230,         31.5,           5.,           0.
   1231,         31.5,           6.,  0.333333343
   1232,        30.75,           6.,           0.
   1233,          33.,           0.,   1.66666675
   1234,          33.,           1.,   1.33333337
   1235,          33.,           2.,   1.66666675
   1236,          33.,           1.,           2.
   1237,        32.25,           2.,           2.
   1238,        32.25,           0.,           2.
   1239,        32.25,           2.,   1.33333337
   1240,        32.25,           0.,   1.33333337
   1241,          33.,           3.,   1.33333337
   1242,          33.,           4.,   1.66666675
   1243,          33.,           3.,           2.
   1244,        32.25,           4.,           2.
   1245,        32.25,           4.,   1.33333337
   1246,          33.,           5.,   1.33333337
   1247,          33.,           6.,   1.66666675
   1248,          33.,           5.,           2.
   1249,        32.25,           6.,           2.
   1250,        32.25,           6.,   1.33333337
   1251,          33.,           0.,           1.
   1252,          33.,           1.,  0.666666687
   1253,          33.,           2.,           1.
   1254,        32.25,           2.,  0.666666687
   1255,        32.25,           0.,  0.666666687
   1256,          33.,           3.,  0.666666687
   1257,          33.,           4.,           1.
   1258,        32.25,           4.,  0.666666687
   1259,          33.,           5.,  0.666666687
   1260,          33.,           6.,           1.
   1261,        32.25,           6.,  0.666666687
   1262,          33.,           0.,  0.333333343
   1263,          33.,           1.,           0.
   1264,          33.,           2.,  0.333333343
   1265,        32.25,           2.,           0.
   1266,        32.25,           0.,           0.
   1267,          33.,           3.,           0.
   1268,          33.,           4.,  0.333333343
   1269,        32.25,           4.,           0.
   1270,          33.,           5.,           0.
   1271,          33.,           6.,  0.333333343
   1272,        32.25,           6.,           0.
*Element, type=C3D20R
  1,   17,   18,   22,   21,    1,    2,    6,    5,  372,  371,  370,  369,  373,  374,  375,
      376,  378,  377,  379,  380
  2,   18,   19,   23,   22,    2,    3,    7,    6,  383,  382,  381,  371,  384,  385,  386,
      374,  377,  387,  388,  379
  3,   19,   20,   24,   23,    3,    4,    8,    7,  391,  390,  389,  382,  392,  393,  394,
      385,  387,  395,  396,  388
  4,   21,   22,   26,   25,    5,    6,   10,    9,  370,  399,  398,  397,  375,  400,  401,
      402,  380,  379,  403,  404
  5,   22,   23,   27,   26,    6,    7,   11,   10,  381,  406,  405,  399,  386,  407,  408,
      400,  379,  388,  409,  403
  6,   23,   24,   28,   27,    7,    8,   12,   11,  389,  411,  410,  406,  394,  412,  413,
      407,  388,  396,  414,  409
  7,   25,   26,   30,   29,    9,   10,   14,   13,  398,  417,  416,  415,  401,  418,  419,
      420,  404,  403,  421,  422
  8,   26,   27,   31,   30,   10,   11,   15,   14,  405,  424,  423,  417,  408,  425,  426,
      418,  403,  409,  427,  421
  9,   27,   28,   32,   31,   11,   12,   16,   15,  410,  429,  428,  424,  413,  430,  431,
      425,  409,  414,  432,  427
 10,   33,   34,   38,   37,   17,   18,   22,   21,  436,  435,  434,  433,  372,  371,  370,
      369,  438,  437,  439,  440
 11,   34,   35,   39,   38,   18,   19,   23,   22,  443,  442,  441,  435,  383,  382,  381,
      371,  437,  444,  445,  439
 12,   35,   36,   40,   39,   19,   20,   24,   23,  448,  447,  446,  442,  391,  390,  389,
      382,  444,  449,  450,  445
 13,   37,   38,   42,   41,   21,   22,   26,   25,  434,  453,  452,  451,  370,  399,  398,
      397,  440,  439,  454,  455
 14,   38,   39,   43,   42,   22,   23,   27,   26,  441,  457,  456,  453,  381,  406,  405,
      399,  439,  445,  458,  454
 15,   39,   40,   44,   43,   23,   24,   28,   27,  446,  460,  459,  457,  389,  411,  410,
      406,  445,  450,  461,  458
 16,   41,   42,   46,   45,   25,   26,   30,   29,  452,  464,  463,  462,  398,  417,  416,
      415,  455,  454,  465,  466
 17,   42,   43,   47,   46,   26,   27,   31,   30,  456,  468,  467,  464,  405,  424,  423,
      417,  454,  458,  469,  465
 18,   43,   44,   48,   47,   27,   28,   32,   31,  459,  471,  470,  468,  410,  429,  428,
      424,  458,  461,  472,  469
 19,   49,   50,   54,   53,   33,   34,   38,   37,  476,  475,  474,  473,  436,  435,  434,
      433,  478,  477,  479,  480
 20,   50,   51,   55,   54,   34,   35,   39,   38,  483,  482,  481,  475,  443,  442,  441,
      435,  477,  484,  485,  479
 21,   51,   52,   56,   55,   35,   36,   40,   39,  488,  487,  486,  482,  448,  447,  446,
      442,  484,  489,  490,  485
 22,   53,   54,   58,   57,   37,   38,   42,   41,  474,  493,  492,  491,  434,  453,  452,
      451,  480,  479,  494,  495
 23,   54,   55,   59,   58,   38,   39,   43,   42,  481,  497,  496,  493,  441,  457,  456,
      453,  479,  485,  498,  494
 24,   55,   56,   60,   59,   39,   40,   44,   43,  486,  500,  499,  497,  446,  460,  459,
      457,  485,  490,  501,  498
 25,   57,   58,   62,   61,   41,   42,   46,   45,  492,  504,  503,  502,  452,  464,  463,
      462,  495,  494,  505,  506
 26,   58,   59,   63,   62,   42,   43,   47,   46,  496,  508,  507,  504,  456,  468,  467,
      464,  494,  498,  509,  505
 27,   59,   60,   64,   63,   43,   44,   48,   47,  499,  511,  510,  508,  459,  471,  470,
      468,  498,  501,  512,  509
 28,   65,   66,   70,   69,   49,   50,   54,   53,  516,  515,  514,  513,  476,  475,  474,
      473,  518,  517,  519,  520
 29,   66,   67,   71,   70,   50,   51,   55,   54,  523,  522,  521,  515,  483,  482,  481,
      475,  517,  524,  525,  519
 30,   67,   68,   72,   71,   51,   52,   56,   55,  528,  527,  526,  522,  488,  487,  486,
      482,  524,  529,  530,  525
 31,   69,   70,   74,   73,   53,   54,   58,   57,  514,  533,  532,  531,  474,  493,  492,
      491,  520,  519,  534,  535
 32,   70,   71,   75,   74,   54,   55,   59,   58,  521,  537,  536,  533,  481,  497,  496,
      493,  519,  525,  538,  534
 33,   71,   72,   76,   75,   55,   56,   60,   59,  526,  540,  539,  537,  486,  500,  499,
      497,  525,  530,  541,  538
 34,   73,   74,   78,   77,   57,   58,   62,   61,  532,  544,  543,  542,  492,  504,  503,
      502,  535,  534,  545,  546
 35,   74,   75,   79,   78,   58,   59,   63,   62,  536,  548,  547,  544,  496,  508,  507,
      504,  534,  538,  549,  545
 36,   75,   76,   80,   79,   59,   60,   64,   63,  539,  551,  550,  548,  499,  511,  510,
      508,  538,  541,  552,  549
 37,   81,   82,   86,   85,   65,   66,   70,   69,  556,  555,  554,  553,  516,  515,  514,
      513,  558,  557,  559,  560
 38,   82,   83,   87,   86,   66,   67,   71,   70,  563,  562,  561,  555,  523,  522,  521,
      515,  557,  564,  565,  559
 39,   83,   84,   88,   87,   67,   68,   72,   71,  568,  567,  566,  562,  528,  527,  526,
      522,  564,  569,  570,  565
 40,   85,   86,   90,   89,   69,   70,   74,   73,  554,  573,  572,  571,  514,  533,  532,
      531,  560,  559,  574,  575
 41,   86,   87,   91,   90,   70,   71,   75,   74,  561,  577,  576,  573,  521,  537,  536,
      533,  559,  565,  578,  574
 42,   87,   88,   92,   91,   71,   72,   76,   75,  566,  580,  579,  577,  526,  540,  539,
      537,  565,  570,  581,  578
 43,   89,   90,   94,   93,   73,   74,   78,   77,  572,  584,  583,  582,  532,  544,  543,
      542,  575,  574,  585,  586
 44,   90,   91,   95,   94,   74,   75,   79,   78,  576,  588,  587,  584,  536,  548,  547,
      544,  574,  578,  589,  585
 45,   91,   92,   96,   95,   75,   76,   80,   79,  579,  591,  590,  588,  539,  551,  550,
      548,  578,  581,  592,  589
 46,   97,   98,  102,  101,   81,   82,   86,   85,  596,  595,  594,  593,  556,  555,  554,
      553,  598,  597,  599,  600
 47,   98,   99,  103,  102,   82,   83,   87,   86,  603,  602,  601,  595,  563,  562,  561,
      555,  597,  604,  605,  599
 48,   99,  100,  104,  103,   83,   84,   88,   87,  608,  607,  606,  602,  568,  567,  566,
      562,  604,  609,  610,  605
 49,  101,  102,  106,  105,   85,   86,   90,   89,  594,  613,  612,  611,  554,  573,  572,
      571,  600,  599,  614,  615
 50,  102,  103,  107,  106,   86,   87,   91,   90,  601,  617,  616,  613,  561,  577,  576,
      573,  599,  605,  618,  614
 51,  103,  104,  108,  107,   87,   88,   92,   91,  606,  620,  619,  617,  566,  580,  579,
      577,  605,  610,  621,  618
 52,  105,  106,  110,  109,   89,   90,   94,   93,  612,  624,  623,  622,  572,  584,  583,
      582,  615,  614,  625,  626
 53,  106,  107,  111,  110,   90,   91,   95,   94,  616,  628,  627,  624,  576,  588,  587,
      584,  614,  618,  629,  625
 54,  107,  108,  112,  111,   91,   92,   96,   95,  619,  631,  630,  628,  579,  591,  590,
      588,  618,  621,  632,  629
 55,  113,  114,  118,  117,   97,   98,  102,  101,  636,  635,  634,  633,  596,  595,  594,
      593,  638,  637,  639,  640
 56,  114,  115,  119,  118,   98,   99,  103,  102,  643,  642,  641,  635,  603,  602,  601,
      595,  637,  644,  645,  639
 57,  115,  116,  120,  119,   99,  100,  104,  103,  648,  647,  646,  642,  608,  607,  606,
      602,  644,  649,  650,  645
 58,  117,  118,  122,  121,  101,  102,  106,  105,  634,  653,  652,  651,  594,  613,  612,
      611,  640,  639,  654,  655
 59,  118,  119,  123,  122,  102,  103,  107,  106,  641,  657,  656,  653,  601,  617,  616,
      613,  639,  645,  658,  654
 60,  119,  120,  124,  123,  103,  104,  108,  107,  646,  660,  659,  657,  606,  620,  619,
      617,  645,  650,  661,  658
 61,  121,  122,  126,  125,  105,  106,  110,  109,  652,  664,  663,  662,  612,  624,  623,
      622,  655,  654,  665,  666
 62,  122,  123,  127,  126,  106,  107,  111,  110,  656,  668,  667,  664,  616,  628,  627,
      624,  654,  658,  669,  665
 63,  123,  124,  128,  127,  107,  108,  112,  111,  659,  671,  670,  668,  619,  631,  630,
      628,  658,  661,  672,  669
 64,  129,  130,  134,  133,  113,  114,  118,  117,  676,  675,  674,  673,  636,  635,  634,
      633,  678,  677,  679,  680
 65,  130,  131,  135,  134,  114,  115,  119,  118,  683,  682,  681,  675,  643,  642,  641,
      635,  677,  684,  685,  679
 66,  131,  132,  136,  135,  115,  116,  120,  119,  688,  687,  686,  682,  648,  647,  646,
      642,  684,  689,  690,  685
 67,  133,  134,  138,  137,  117,  118,  122,  121,  674,  693,  692,  691,  634,  653,  652,
      651,  680,  679,  694,  695
 68,  134,  135,  139,  138,  118,  119,  123,  122,  681,  697,  696,  693,  641,  657,  656,
      653,  679,  685,  698,  694
 69,  135,  136,  140,  139,  119,  120,  124,  123,  686,  700,  699,  697,  646,  660,  659,
      657,  685,  690,  701,  698
 70,  137,  138,  142,  141,  121,  122,  126,  125,  692,  704,  703,  702,  652,  664,  663,
      662,  695,  694,  705,  706
 71,  138,  139,  143,  142,  122,  123,  127,  126,  696,  708,  707,  704,  656,  668,  667,
      664,  694,  698,  709,  705
 72,  139,  140,  144,  143,  123,  124,  128,  127,  699,  711,  710,  708,  659,  671,  670,
      668,  698,  701,  712,  709
 73,  145,  146,  150,  149,  129,  130,  134,  133,  716,  715,  714,  713,  676,  675,  674,
      673,  718,  717,  719,  720
 74,  146,  147,  151,  150,  130,  131,  135,  134,  723,  722,  721,  715,  683,  682,  681,
      675,  717,  724,  725,  719
 75,  147,  148,  152,  151,  131,  132,  136,  135,  728,  727,  726,  722,  688,  687,  686,
      682,  724,  729,  730,  725
 76,  149,  150,  154,  153,  133,  134,  138,  137,  714,  733,  732,  731,  674,  693,  692,
      691,  720,  719,  734,  735
 77,  150,  151,  155,  154,  134,  135,  139,  138,  721,  737,  736,  733,  681,  697,  696,
      693,  719,  725,  738,  734
 78,  151,  152,  156,  155,  135,  136,  140,  139,  726,  740,  739,  737,  686,  700,  699,
      697,  725,  730,  741,  738
 79,  153,  154,  158,  157,  137,  138,  142,  141,  732,  744,  743,  742,  692,  704,  703,
      702,  735,  734,  745,  746
 80,  154,  155,  159,  158,  138,  139,  143,  142,  736,  748,  747,  744,  696,  708,  707,
      704,  734,  738,  749,  745
 81,  155,  156,  160,  159,  139,  140,  144,  143,  739,  751,  750,  748,  699,  711,  710,
      708,  738,  741,  752,  749
 82,  161,  162,  166,  165,  145,  146,  150,  149,  756,  755,  754,  753,  716,  715,  714,
      713,  758,  757,  759,  760
 83,  162,  163,  167,  166,  146,  147,  151,  150,  763,  762,  761,  755,  723,  722,  721,
      715,  757,  764,  765,  759
 84,  163,  164,  168,  167,  147,  148,  152,  151,  768,  767,  766,  762,  728,  727,  726,
      722,  764,  769,  770,  765
 85,  165,  166,  170,  169,  149,  150,  154,  153,  754,  773,  772,  771,  714,  733,  732,
      731,  760,  759,  774,  775
 86,  166,  167,  171,  170,  150,  151,  155,  154,  761,  777,  776,  773,  721,  737,  736,
      733,  759,  765,  778,  774
 87,  167,  168,  172,  171,  151,  152,  156,  155,  766,  780,  779,  777,  726,  740,  739,
      737,  765,  770,  781,  778
 88,  169,  170,  174,  173,  153,  154,  158,  157,  772,  784,  783,  782,  732,  744,  743,
      742,  775,  774,  785,  786
 89,  170,  171,  175,  174,  154,  155,  159,  158,  776,  788,  787,  784,  736,  748,  747,
      744,  774,  778,  789,  785
 90,  171,  172,  176,  175,  155,  156,  160,  159,  779,  791,  790,  788,  739,  751,  750,
      748,  778,  781,  792,  789
 91,  177,  178,  182,  181,  161,  162,  166,  165,  796,  795,  794,  793,  756,  755,  754,
      753,  798,  797,  799,  800
 92,  178,  179,  183,  182,  162,  163,  167,  166,  803,  802,  801,  795,  763,  762,  761,
      755,  797,  804,  805,  799
 93,  179,  180,  184,  183,  163,  164,  168,  167,  808,  807,  806,  802,  768,  767,  766,
      762,  804,  809,  810,  805
 94,  181,  182,  186,  185,  165,  166,  170,  169,  794,  813,  812,  811,  754,  773,  772,
      771,  800,  799,  814,  815
 95,  182,  183,  187,  186,  166,  167,  171,  170,  801,  817,  816,  813,  761,  777,  776,
      773,  799,  805,  818,  814
 96,  183,  184,  188,  187,  167,  168,  172,  171,  806,  820,  819,  817,  766,  780,  779,
      777,  805,  810,  821,  818
 97,  185,  186,  190,  189,  169,  170,  174,  173,  812,  824,  823,  822,  772,  784,  783,
      782,  815,  814,  825,  826
 98,  186,  187,  191,  190,  170,  171,  175,  174,  816,  828,  827,  824,  776,  788,  787,
      784,  814,  818,  829,  825
 99,  187,  188,  192,  191,  171,  172,  176,  175,  819,  831,  830,  828,  779,  791,  790,
      788,  818,  821,  832,  829
100,  193,  194,  198,  197,  177,  178,  182,  181,  836,  835,  834,  833,  796,  795,  794,
      793,  838,  837,  839,  840
101,  194,  195,  199,  198,  178,  179,  183,  182,  843,  842,  841,  835,  803,  802,  801,
      795,  837,  844,  845,  839
102,  195,  196,  200,  199,  179,  180,  184,  183,  848,  847,  846,  842,  808,  807,  806,
      802,  844,  849,  850,  845
103,  197,  198,  202,  201,  181,  182,  186,  185,  834,  853,  852,  851,  794,  813,  812,
      811,  840,  839,  854,  855
104,  198,  199,  203,  202,  182,  183,  187,  186,  841,  857,  856,  853,  801,  817,  816,
      813,  839,  845,  858,  854
105,  199,  200,  204,  203,  183,  184,  188,  187,  846,  860,  859,  857,  806,  820,  819,
      817,  845,  850,  861,  858
106,  201,  202,  206,  205,  185,  186,  190,  189,  852,  864,  863,  862,  812,  824,  823,
      822,  855,  854,  865,  866
107,  202,  203,  207,  206,  186,  187,  191,  190,  856,  868,  867,  864,  816,  828,  827,
      824,  854,  858,  869,  865
108,  203,  204,  208,  207,  187,  188,  192,  191,  859,  871,  870,  868,  819,  831,  830,
      828,  858,  861,  872,  869
109,  209,  210,  214,  213,  193,  194,  198,  197,  876,  875,  874,  873,  836,  835,  834,
      833,  878,  877,  879,  880
110,  210,  211,  215,  214,  194,  195,  199,  198,  883,  882,  881,  875,  843,  842,  841,
      835,  877,  884,  885,  879
111,  211,  212,  216,  215,  195,  196,  200,  199,  888,  887,  886,  882,  848,  847,  846,
      842,  884,  889,  890,  885
112,  213,  214,  218,  217,  197,  198,  202,  201,  874,  893,  892,  891,  834,  853,  852,
      851,  880,  879,  894,  895
113,  214,  215,  219,  218,  198,  199,  203,  202,  881,  897,  896,  893,  841,  857,  856,
      853,  879,  885,  898,  894
114,  215,  216,  220,  219,  199,  200,  204,  203,  886,  900,  899,  897,  846,  860,  859,
      857,  885,  890,  901,  898
115,  217,  218,  222,  221,  201,  202,  206,  205,  892,  904,  903,  902,  852,  864,  863,
      862,  895,  894,  905,  906
116,  218,  219,  223,  222,  202,  203,  207,  206,  896,  908,  907,  904,  856,  868,  867,
      864,  894,  898,  909,  905
117,  219,  220,  224,  223,  203,  204,  208,  207,  899,  911,  910,  908,  859,  871,  870,
      868,  898,  901,  912,  909
118,  225,  226,  230,  229,  209,  210,  214,  213,  916,  915,  914,  913,  876,  875,  874,
      873,  918,  917,  919,  920
119,  226,  227,  231,  230,  210,  211,  215,  214,  923,  922,  921,  915,  883,  882,  881,
      875,  917,  924,  925,  919
120,  227,  228,  232,  231,  211,  212,  216,  215,  928,  927,  926,  922,  888,  887,  886,
      882,  924,  929,  930,  925
121,  229,  230,  234,  233,  213,  214,  218,  217,  914,  933,  932,  931,  874,  893,  892,
      891,  920,  919,  934,  935
122,  230,  231,  235,  234,  214,  215,  219,  218,  921,  937,  936,  933,  881,  897,  896,
      893,  919,  925,  938,  934
123,  231,  232,  236,  235,  215,  216,  220,  219,  926,  940,  939,  937,  886,  900,  899,
      897,  925,  930,  941,  938
124,  233,  234,  238,  237,  217,  218,  222,  221,  932,  944,  943,  942,  892,  904,  903,
      902,  935,  934,  945,  946
125,  234,  235,  239,  238,  218,  219,  223,  222,  936,  948,  947,  944,  896,  908,  907,
      904,  934,  938,  949,  945
126,  235,  236,  240,  239,  219,  220,  224,  223,  939,  951,  950,  948,  899,  911,  910,
      908,  938,  941,  952,  949
127,  241,  242,  246,  245,  225,  226,  230,  229,  956,  955,  954,  953,  916,  915,  914,
      913,  958,  957,  959,  960
128,  242,  243,  247,  246,  226,  227,  231,  230,  963,  962,  961,  955,  923,  922,  921,
      915,  957,  964,  965,  959
129,  243,  244,  248,  247,  227,  228,  232,  231,  968,  967,  966,  962,  928,  927,  926,
      922,  964,  969,  970,  965
130,  245,  246,  250,  249,  229,  230,  234,  233,  954,  973,  972,  971,  914,  933,  932,
      931,  960,  959,  974,  975
131,  246,  247,  251,  250,  230,  231,  235,  234,  961,  977,  976,  973,  921,  937,  936,
      933,  959,  965,  978,  974
132,  247,  248,  252,  251,  231,  232,  236,  235,  966,  980,  979,  977,  926,  940,  939,
      937,  965,  970,  981,  978
133,  249,  250,  254,  253,  233,  234,  238,  237,  972,  984,  983,  982,  932,  944,  943,
      942,  975,  974,  985,  986
134,  250,  251,  255,  254,  234,  235,  239,  238,  976,  988,  987,  984,  936,  948,  947,
      944,  974,  978,  989,  985
135,  251,  252,  256,  255,  235,  236,  240,  239,  979,  991,  990,  988,  939,  951,  950,
      948,  978,  981,  992,  989
136,  257,  258,  262,  261,  241,  242,  246,  245,  996,  995,  994,  993,  956,  955,  954,
      953,  998,  997,  999, 1000
137,  258,  259,  263,  262,  242,  243,  247,  246, 1003, 1002, 1001,  995,  963,  962,  961,
      955,  997, 1004, 1005,  999
138,  259,  260,  264,  263,  243,  244,  248,  247, 1008, 1007, 1006, 1002,  968,  967,  966,
      962, 1004, 1009, 1010, 1005
139,  261,  262,  266,  265,  245,  246,  250,  249,  994, 1013, 1012, 1011,  954,  973,  972,
      971, 1000,  999, 1014, 1015
140,  262,  263,  267,  266,  246,  247,  251,  250, 1001, 1017, 1016, 1013,  961,  977,  976,
      973,  999, 1005, 1018, 1014
141,  263,  264,  268,  267,  247,  248,  252,  251, 1006, 1020, 1019, 1017,  966,  980,  979,
      977, 1005, 1010, 1021, 1018
142,  265,  266,  270,  269,  249,  250,  254,  253, 1012, 1024, 1023, 1022,  972,  984,  983,
      982, 1015, 1014, 1025, 1026
143,  266,  267,  271,  270,  250,  251,  255,  254, 1016, 1028, 1027, 1024,  976,  988,  987,
      984, 1014, 1018, 1029, 1025
144,  267,  268,  272,  271,  251,  252,  256,  255, 1019, 1031, 1030, 1028,  979,  991,  990,
      988, 1018, 1021, 1032, 1029
145,  273,  274,  278,  277,  257,  258,  262,  261, 1036, 1035, 1034, 1033,  996,  995,  994,
      993, 1038, 1037, 1039, 1040
146,  274,  275,  279,  278,  258,  259,  263,  262, 1043, 1042, 1041, 1035, 1003, 1002, 1001,
      995, 1037, 1044, 1045, 1039
147,  275,  276,  280,  279,  259,  260,  264,  263, 1048, 1047, 1046, 1042, 1008, 1007, 1006,
     1002, 1044, 1049, 1050, 1045
148,  277,  278,  282,  281,  261,  262,  266,  265, 1034, 1053, 1052, 1051,  994, 1013, 1012,
     1011, 1040, 1039, 1054, 1055
149,  278,  279,  283,  282,  262,  263,  267,  266, 1041, 1057, 1056, 1053, 1001, 1017, 1016,
     1013, 1039, 1045, 1058, 1054
150,  279,  280,  284,  283,  263,  264,  268,  267, 1046, 1060, 1059, 1057, 1006, 1020, 1019,
     1017, 1045, 1050, 1061, 1058
151,  281,  282,  286,  285,  265,  266,  270,  269, 1052, 1064, 1063, 1062, 1012, 1024, 1023,
     1022, 1055, 1054, 1065, 1066
152,  282,  283,  287,  286,  266,  267,  271,  270, 1056, 1068, 1067, 1064, 1016, 1028, 1027,
     1024, 1054, 1058, 1069, 1065
153,  283,  284,  288,  287,  267,  268,  272,  271, 1059, 1071, 1070, 1068, 1019, 1031, 1030,
     1028, 1058, 1061, 1072, 1069
154,  289,  290,  294,  293,  273,  274,  278,  277, 1076, 1075, 1074, 1073, 1036, 1035, 1034,
     1033, 1078, 1077, 1079, 1080
155,  290,  291,  295,  294,  274,  275,  279,  278, 1083, 1082, 1081, 1075, 1043, 1042, 1041,
     1035, 1077, 1084, 1085, 1079
156,  291,  292,  296,  295,  275,  276,  280,  279, 1088, 1087, 1086, 1082, 1048, 1047, 1046,
     1042, 1084, 1089, 1090, 1085
157,  293,  294,  298,  297,  277,  278,  282,  281, 1074, 1093, 1092, 1091, 1034, 1053, 1052,
     1051, 1080, 1079, 1094, 1095
158,  294,  295,  299,  298,  278,  279,  283,  282, 1081, 1097, 1096, 1093, 1041, 1057, 1056,
     1053, 1079, 1085, 1098, 1094
159,  295,  296,  300,  299,  279,  280,  284,  283, 1086, 1100, 1099, 1097, 1046, 1060, 1059,
     1057, 1085, 1090, 1101, 1098
160,  297,  298,  302,  301,  281,  282,  286,  285, 1092, 1104, 1103, 1102, 1052, 1064, 1063,
     1062, 1095, 1094, 1105, 1106
161,  298,  299,  303,  302,  282,  283,  287,  286, 1096, 1108, 1107, 1104, 1056, 1068, 1067,
     1064, 1094, 1098, 1109, 1105
162,  299,  300,  304,  303,  283,  284,  288,  287, 1099, 1111, 1110, 1108, 1059, 1071, 1070,
     1068, 1098, 1101, 1112, 1109
163,  305,  306,  310,  309,  289,  290,  294,  293, 1116, 1115, 1114, 1113, 1076, 1075, 1074,
     1073, 1118, 1117, 1119, 1120
164,  306,  307,  311,  310,  290,  291,  295,  294, 1123, 1122, 1121, 1115, 1083, 1082, 1081,
     1075, 1117, 1124, 1125, 1119
165,  307,  308,  312,  311,  291,  292,  296,  295, 1128, 1127, 1126, 1122, 1088, 1087, 1086,
     1082, 1124, 1129, 1130, 1125
166,  309,  310,  314,  313,  293,  294,  298,  297, 1114, 1133, 1132, 1131, 1074, 1093, 1092,
     1091, 1120, 1119, 1134, 1135
167,  310,  311,  315,  314,  294,  295,  299,  298, 1121, 1137, 1136, 1133, 1081, 1097, 1096,
     1093, 1119, 1125, 1138, 1134
168,  311,  312,  316,  315,  295,  296,  300,  299, 1126, 1140, 1139, 1137, 1086, 1100, 1099,
     1097, 1125, 1130, 1141, 1138
169,  313,  314,  318,  317,  297,  298,  302,  301, 1132, 1144, 1143, 1142, 1092, 1104, 1103,
     1102, 1135, 1134, 1145, 1146
170,  314,  315,  319,  318,  298,  299,  303,  302, 1136, 1148, 1147, 1144, 1096, 1108, 1107,
     1104, 1134, 1138, 1149, 1145
171,  315,  316,  320,  319,  299,  300,  304,  303, 1139, 1151, 1150, 1148, 1099, 1111, 1110,
     1108, 1138, 1141, 1152, 1149
172,  321,  322,  326,  325,  305,  306,  310,  309, 1156, 1155, 1154, 1153, 1116, 1115, 1114,
     1113, 1158, 1157, 1159, 1160
173,  322,  323,  327,  326,  306,  307,  311,  310, 1163, 1162, 1161, 1155, 1123, 1122, 1121,
     1115, 1157, 1164, 1165, 1159
174,  323,  324,  328,  327,  307,  308,  312,  311, 1168, 1167, 1166, 1162, 1128, 1127, 1126,
     1122, 1164, 1169, 1170, 1165
175,  325,  326,  330,  329,  309,  310,  314,  313, 1154, 1173, 1172, 1171, 1114, 1133, 1132,
     1131, 1160, 1159, 1174, 1175
176,  326,  327,  331,  330,  310,  311,  315,  314, 1161, 1177, 1176, 1173, 1121, 1137, 1136,
     1133, 1159, 1165, 1178, 1174
177,  327,  328,  332,  331,  311,  312,  316,  315, 1166, 1180, 1179, 1177, 1126, 1140, 1139,
     1137, 1165, 1170, 1181, 1178
178,  329,  330,  334,  333,  313,  314,  318,  317, 1172, 1184, 1183, 1182, 1132, 1144, 1143,
     1142, 1175, 1174, 1185, 1186
179,  330,  331,  335,  334,  314,  315,  319,  318, 1176, 1188, 1187, 1184, 1136, 1148, 1147,
     1144, 1174, 1178, 1189, 1185
180,  331,  332,  336,  335,  315,  316,  320,  319, 1179, 1191, 1190, 1188, 1139, 1151, 1150,
     1148, 1178, 1181, 1192, 1189
181,  337,  338,  342,  341,  321,  322,  326,  325, 1196, 1195, 1194, 1193, 1156, 1155, 1154,
     1153, 1198, 1197, 1199, 1200
182,  338,  339,  343,  342,  322,  323,  327,  326, 1203, 1202, 1201, 1195, 1163, 1162, 1161,
     1155, 1197, 1204, 1205, 1199
183,  339,  340,  344,  343,  323,  324,  328,  327, 1208, 1207, 1206, 1202, 1168, 1167, 1166,
     1162, 1204, 1209, 1210, 1205
184,  341,  342,  346,  345,  325,  326,  330,  329, 1194, 1213, 1212, 1211, 1154, 1173, 1172,
     1171, 1200, 1199, 1214, 1215
185,  342,  343,  347,  346,  326,  327,  331,  330, 1201, 1217, 1216, 1213, 1161, 1177, 1176,
     1173, 1199, 1205, 1218, 1214
186,  343,  344,  348,  347,  327,  328,  332,  331, 1206, 1220, 1219, 1217, 1166, 1180, 1179,
     1177, 1205, 1210, 1221, 1218
187,  345,  346,  350,  349,  329,  330,  334,  333, 1212, 1224, 1223, 1222, 1172, 1184, 1183,
     1182, 1215, 1214, 1225, 1226
188,  346,  347,  351,  350,  330,  331,  335,  334, 1216, 1228, 1227, 1224, 1176, 1188, 1187,
     1184, 1214, 1218, 1229, 1225
189,  347,  348,  352,  351,  331,  332,  336,  335, 1219, 1231, 1230, 1228, 1179, 1191, 1190,
     1188, 1218, 1221, 1232, 1229
190,  353,  354,  358,  357,  337,  338,  342,  341, 1236, 1235, 1234, 1233, 1196, 1195, 1194,
     1193, 1238, 1237, 1239, 1240
191,  354,  355,  359,  358,  338,  339,  343,  342, 1243, 1242, 1241, 1235, 1203, 1202, 1201,
     1195, 1237, 1244, 1245, 1239
192,  355,  356,  360,  359,  339,  340,  344,  343, 1248, 1247, 1246, 1242, 1208, 1207, 1206,
     1202, 1244, 1249, 1250, 1245
193,  357,  358,  362,  361,  341,  342,  346,  345, 1234, 1253, 1252, 1251, 1194, 1213, 1212,
     1211, 1240, 1239, 1254, 1255
194,  358,  359,  363,  362,  342,  343,  347,  346, 1241, 1257, 1256, 1253, 1201, 1217, 1216,
     1213, 1239, 1245, 1258, 1254
195,  359,  360,  364,  363,  343,  344,  348,  347, 1246, 1260, 1259, 1257, 1206, 1220, 1219,
     1217, 1245, 1250, 1261, 1258
196,  361,  362,  366,  365,  345,  346,  350,  349, 1252, 1264, 1263, 1262, 1212, 1224, 1223,
     1222, 1255, 1254, 1265, 1266
197,  362,  363,  367,  366,  346,  347,  351,  350, 1256, 1268, 1267, 1264, 1216, 1228, 1227,
     1224, 1254, 1258, 1269, 1265
198,  363,  364,  368,  367,  347,  348,  352,  351, 1259, 1271, 1270, 1268, 1219, 1231, 1230,
     1228, 1258, 1261, 1272, 1269
*Nset, nset=ALL, generate
    1,  1272,     1
*Elset, elset=ALL, generate
   1,  198,    1
*Nset, nset=_PickedSet6, internal, generate
    1,  1272,     1
*Elset, elset=_PickedSet6, internal, generate
   1,  198,    1
*Orientation, name=Ori-1
0.707106781186548, 0.707106781186548,           0., -0.707106781186548, 0.707106781186548,           0.
3, 0.
** Section: Section-1
*Solid Section, elset=_PickedSet6, orientation=Ori-1, material=Material-1
,
*End Part
**  
**
** ASSEMBLY
**
*Assembly, name=Assembly
**  
*Instance, name=block-1, part=block
*End Instance
**  
*Node
      1,           0.,           3.,           1.
*Node
      2,          33.,           3.,           1.
*Nset, nset=RP1
 1,
*Nset, nset=RP2
 2,
*Nset, nset=block, instance=block-1, generate
    1,  1272,     1
*Elset, elset=block, instance=block-1, generate
   1,  198,    1
*Nset, nset=tem, instance=block-1
 4,
*Nset, nset=_PickedSet15, internal
 1,
*Nset, nset=_PickedSet17, internal
 2,
*Elset, elset=__PickedSurf14_S2, internal, instance=block-1, generate
 1,  9,  1
*Surface, type=ELEMENT, name=_PickedSurf14, internal
__PickedSurf14_S2, S2
*Elset, elset=__PickedSurf16_S1, internal, instance=block-1, generate
 190,  198,    1
*Surface, type=ELEMENT, name=_PickedSurf16, internal
__PickedSurf16_S1, S1
** Constraint: Constraint-1
*Coupling, constraint name=Constraint-1, ref node=_PickedSet15, surface=_PickedSurf14
*Kinematic
** Constraint: Constraint-2
*Coupling, constraint name=Constraint-2, ref node=_PickedSet17, surface=_PickedSurf16
*Kinematic
*End Assembly
*Amplitude, name=cold
             0.,            343.,             50.,            298.
*Amplitude, name=heat
             0.,            298.,             50.,            353.
*Amplitude, name=load
             0.,              0.,             20.,              1.
** 
** MATERIALS
** 
*Material, name=Material-1
*Depvar
     43,
*User Material, constants=43
 0.1,       1.,      10.,     100.,    1000.,   10000.,  10319.1,  200.254
  89.0021,  288.039,  322.882,  29.7953,  1.08799,  1.77138,   183.83,  82.8455
  272.998,  318.639,  30.0832,   1.0973,  2.83844,  293.707,  132.426,  436.637
  510.272,  48.2092,  1.75608,  1.82402,  188.472,  84.9984,  280.342,  327.818
  30.9813,   1.1279, 0.530688,  55.3091,  24.9132,  82.0325,  95.5597,  9.01153
 0.328643,  3.7e-06,  0.00012
** 
** BOUNDARY CONDITIONS
** 
** Name: BC-1 Type: Displacement/Rotation
*Boundary
RP1, 1, 1
RP1, 2, 2
RP1, 3, 3
RP1, 4, 4
RP1, 5, 5
RP1, 6, 6
** Name: BC-2 Type: Displacement/Rotation
*Boundary
RP2, 1, 1
RP2, 2, 2
RP2, 3, 3
RP2, 4, 4
RP2, 5, 5
RP2, 6, 6
** 
** PREDEFINED FIELDS
** 
** Name: Predefined Field-1   Type: Temperature
*Initial Conditions, type=TEMPERATURE
block, 343.
** ----------------------------------------------------------------
** 
** STEP: Step-1
** 
*Step, name=Step-1, nlgeom=YES, inc=10000
*Visco, cetol=0.01
0.01, 20., 1e-06, 1.
** 
** OUTPUT REQUESTS
** 
*Restart, write, frequency=0
** 
** FIELD OUTPUT: F-Output-1
** 
*Output, field
*Node Output
CF, RF, U
*Element Output, directions=YES
E, IE, LE, MISES, S
** 
** HISTORY OUTPUT: H-Output-2
** 
*Output, history
*Node Output, nset=RP2
RF1, RF2, RF3, RM1, RM2, RM3, U1, U2
U3, UR1, UR2, UR3
** 
** HISTORY OUTPUT: H-Output-3
** 
*Node Output, nset=tem
NT, 
** 
** HISTORY OUTPUT: H-Output-1
** 
*Output, history, variable=PRESELECT
*End Step
** ----------------------------------------------------------------
** 
** STEP: Step-2
** 
*Step, name=Step-2, nlgeom=YES, inc=10000
*Visco, cetol=1e-06
0.1, 50., 0.0005, 2.
** 
** BOUNDARY CONDITIONS
** 
** Name: BC-1 Type: Displacement/Rotation
*Boundary, op=NEW
RP1, 1, 1
RP1, 2, 2
RP1, 3, 3
RP1, 4, 4
RP1, 5, 5
RP1, 6, 6
** Name: BC-2 Type: Displacement/Rotation
*Boundary, op=NEW, amplitude=load
RP2, 1, 1, 5.
RP2, 2, 2
RP2, 3, 3
** 
** PREDEFINED FIELDS
** 
** Name: Predefined Field-1   Type: Temperature
*Temperature, amplitude=cold
block, 1.
** 
** OUTPUT REQUESTS
** 
*Restart, write, frequency=0
** 
** FIELD OUTPUT: F-Output-1
** 
*Output, field
*Node Output
CF, RF, U
*Element Output, directions=YES
E, IE, LE, MISES, S
** 
** HISTORY OUTPUT: H-Output-2
** 
*Output, history
*Node Output, nset=RP2
RF1, RF2, RF3, RM1, RM2, RM3, U1, U2
U3, UR1, UR2, UR3
** 
** HISTORY OUTPUT: H-Output-3
** 
*Node Output, nset=tem
NT, 
** 
** HISTORY OUTPUT: H-Output-1
** 
*Output, history, variable=PRESELECT
*End Step
** ----------------------------------------------------------------
** 
** STEP: Step-3
** 
*Step, name=Step-3, nlgeom=YES
*Visco, cetol=1e-06
0.01, 1., 1e-05, 1.
** 
** BOUNDARY CONDITIONS
** 
** Name: BC-1 Type: Displacement/Rotation
*Boundary, op=NEW
RP1, 1, 1
RP1, 2, 2
RP1, 3, 3
RP1, 4, 4
RP1, 5, 5
RP1, 6, 6
** Name: BC-2 Type: Displacement/Rotation
*Boundary, op=NEW
** 
** OUTPUT REQUESTS
** 
*Restart, write, frequency=0
** 
** FIELD OUTPUT: F-Output-1
** 
*Output, field
*Node Output
CF, RF, U
*Element Output, directions=YES
E, IE, LE, MISES, S
** 
** HISTORY OUTPUT: H-Output-2
** 
*Output, history
*Node Output, nset=RP2
RF1, RF2, RF3, RM1, RM2, RM3, U1, U2
U3, UR1, UR2, UR3
** 
** HISTORY OUTPUT: H-Output-3
** 
*Node Output, nset=tem
NT, 
** 
** HISTORY OUTPUT: H-Output-1
** 
*Output, history, variable=PRESELECT
*End Step
** ----------------------------------------------------------------
** 
** STEP: Step-4
** 
*Step, name=Step-4, nlgeom=YES, inc=50000
*Visco, cetol=1e-06
0.01, 50., 0.0005, 0.1
** 
** PREDEFINED FIELDS
** 
** Name: Predefined Field-1   Type: Temperature
*Temperature, amplitude=heat
block, 1.
** 
** OUTPUT REQUESTS
** 
*Restart, write, frequency=0
** 
** FIELD OUTPUT: F-Output-1
** 
*Output, field
*Node Output
CF, RF, U
*Element Output, directions=YES
E, IE, LE, MISES, S
** 
** HISTORY OUTPUT: H-Output-2
** 
*Output, history
*Node Output, nset=RP2
RF1, RF2, RF3, RM1, RM2, RM3, U1, U2
U3, UR1, UR2, UR3
** 
** HISTORY OUTPUT: H-Output-3
** 
*Node Output, nset=tem
NT, 
** 
** HISTORY OUTPUT: H-Output-1
** 
*Output, history, variable=PRESELECT
*End Step
